Route #1: 29
Route #2: 16 2 38 42 61 20 58 32
Route #3: 40 59 44 56 25
Route #4: 53 8 10 52 24 19 18
Route #5: 4 35 36 3 14 9 22
Route #6: 5 45 41 50 60 30 37
Route #7: 46 64 6 26 31 34 47
Route #8: 7 54 48 57 23 11 63 62
Route #9: 39 28 33 1 12 13 21 55
Route #10: 51 17 15 27 43 49
Cost 1264.5130793589453